
Gurobi 11.0.2 (win64) logging started Mon Aug 19 10:05:02 2024

Set parameter LogFile to value "D:\Documenti\Scuola\Laurea magistrale unibs\laurea-unibs-mkfsp\output\2024-08-19T06_36_50.601237\logs\instance09_bucket10.log"
Set parameter TimeLimit to value 1.5483575749999727e+02
Set parameter MIPGap to value 0
Gurobi Optimizer version 11.0.2 build v11.0.2rc0 (win64 - Windows 10.0 (19045.2))

CPU model: Intel(R) Core(TM) i5-4670 CPU @ 3.40GHz, instruction set [SSE2|AVX|AVX2]
Thread count: 4 physical cores, 4 logical processors, using up to 4 threads

Optimize a model with 8696 rows, 45387 columns and 1275682 nonzeros
Model fingerprint: 0x841b484c
Variable types: 0 continuous, 45387 integer (45036 binary)
Coefficient statistics:
  Matrix range     [1e+00, 9e+03]
  Objective range  [6e+02, 9e+03]
  Bounds range     [1e+00, 1e+00]
  RHS range        [1e+00, 2e+06]
Presolve time: 3.07s
Presolved: 8696 rows, 45387 columns, 1275682 nonzeros
Variable types: 0 continuous, 45387 integer (45036 binary)
Deterministic concurrent LP optimizer: primal simplex, dual simplex, and barrier
Showing barrier log only...

Root barrier log...

Ordering time: 0.15s

Barrier statistics:
 AA' NZ     : 1.362e+06
 Factor NZ  : 1.492e+06 (roughly 30 MB of memory)
 Factor Ops : 6.836e+08 (less than 1 second per iteration)
 Threads    : 1

                  Objective                Residual
Iter       Primal          Dual         Primal    Dual     Compl     Time
   0   1.87946029e+08  2.06385857e+08  9.44e+06 0.00e+00  1.05e+06     5s
   1   4.66166339e+07  2.12394127e+08  2.15e+06 5.40e-13  2.55e+05     5s
   2   2.23355944e+06  2.01889745e+08  2.16e+04 7.39e-13  4.95e+03     6s
   3   1.82852638e+06  8.73629773e+07  1.34e+03 3.27e-11  1.16e+03     6s
   4   1.80440070e+06  1.24258751e+07  3.16e+00 2.12e-12  1.31e+02     6s
   5   1.86790860e+06  3.40381551e+06  5.49e-04 2.24e-13  1.90e+01     6s
   6   1.91731683e+06  2.41648183e+06  1.13e-04 7.11e-14  6.16e+00     7s
   7   1.93115242e+06  1.96571818e+06  8.96e-06 3.82e-14  4.26e-01     7s
   8   1.93311972e+06  1.94291198e+06  3.48e-06 3.69e-14  1.21e-01     7s
   9   1.93412988e+06  1.93523983e+06  6.78e-07 3.61e-14  1.37e-02     7s
  10   1.93440439e+06  1.93457983e+06  5.75e-08 4.66e-14  2.16e-03     8s
  11   1.93444649e+06  1.93448321e+06  1.11e-08 3.02e-14  4.53e-04     8s
  12   1.93444699e+06  1.93446209e+06  1.98e-09 3.42e-14  1.86e-04     8s
  13   1.93445446e+06  1.93445766e+06  3.33e-10 3.55e-14  3.95e-05     9s
  14   1.93445601e+06  1.93445615e+06  1.23e-10 4.88e-14  1.72e-06     9s
  15   1.93445603e+06  1.93445603e+06  2.04e-10 4.35e-14  1.75e-09     9s

Barrier solved model in 15 iterations and 9.17 seconds (5.94 work units)
Optimal objective 1.93445603e+06

  Building initial crossover basis                                15s

Root crossover log...

    2309 DPushes remaining with DInf 0.0000000e+00                15s
       0 DPushes remaining with DInf 0.0000000e+00                16s

     158 PPushes remaining with PInf 1.1420989e-03                16s
       0 PPushes remaining with PInf 0.0000000e+00                16s

  Push phase complete: Pinf 0.0000000e+00, Dinf 1.0634908e-10     16s


Root simplex log...

Iteration    Objective       Primal Inf.    Dual Inf.      Time
    2467    1.9344560e+06   0.000000e+00   0.000000e+00     16s
Concurrent spin time: 0.00s

Solved with barrier
    2467    1.9344560e+06   0.000000e+00   0.000000e+00     16s

Root relaxation: objective 1.934456e+06, 2467 iterations, 12.11 seconds (6.91 work units)

    Nodes    |    Current Node    |     Objective Bounds      |     Work
 Expl Unexpl |  Obj  Depth IntInf | Incumbent    BestBd   Gap | It/Node Time

     0     0 1934456.03    0 3290          - 1934456.03      -     -   58s
     0     0 1934456.03    0 4259          - 1934456.03      -     -  118s
     0     0          -    0               - 1934456.03      -     -  154s

Cutting planes:
  Cover: 1625
  Clique: 83
  MIR: 440
  StrongCG: 17
  Zero half: 1

Explored 1 nodes (44117 simplex iterations) in 154.85 seconds (163.87 work units)
Thread count was 4 (of 4 available processors)

Solution count 0

Time limit reached
Best objective -, best bound 1.934456029311e+06, gap -
